% Logging successfully configured
%%%mzn-stat: initTime=0.016670345
%%%mzn-stat: objective=603
%%%mzn-stat: nodes=199
%%%mzn-stat: restarts=0
%%%mzn-stat: peakDepth=182
%%%mzn-stat: solveTime=0.001067141
%%%mzn-stat: variables=386
%%%mzn-stat: propagators=456
%%%mzn-stat: failures=16
%%%mzn-stat: propagations=2995
%%%mzn-stat: nogoods=16
%%%mzn-stat: numAtomicConstraintsPropagated=0
%%%mzn-stat: circuitNumber191PropagationsThatFoundConflict=2
%%%mzn-stat: circuitNumber191TotalFixedEdgesAtConflict=40
%%%mzn-stat: circuitNumber191NumberOfConflicts=2
%%%mzn-stat: circuitNumber191PropagationsThatPruned=6
%%%mzn-stat: circuitNumber191PropagationsTotal=32
%%%mzn-stat: AverageConflictSize=3.875
%%%mzn-stat: NumUnitNogoodsLearned=0
%%%mzn-stat: AverageLearnedNogoodLength=7.4375
%%%mzn-stat: AverageBacktrackAmount=0
%%%mzn-stat: AverageLbd=6.1875
%%%mzn-stat: 2AutonomousSearchNumBackupCalled=167
%%%mzn-stat: 2AutonomousSearchNumPredicatesRemoved=0
%%%mzn-stat: 2AutonomousSearchNumCalls=168
%%%mzn-stat: 2AutonomousSearchNumPredicatesAdded=192
%%%mzn-stat: 2AutonomousSearchAverageSizeOfHeap=1.1428571428571428
%%%mzn-stat: 2AutonomousSearchNumAssignedPredicatesEncountered=192
%%%mzn-stat-end
maxleg = 603;
succ = array1d(1..20,[3, 5, 2, 7, 6, 8, 9, 4, 10, 14, 12, 18, 15, 16, 19, 17, 20, 1, 11, 13]);
% time elapsed: 6.06 s
----------
%%%mzn-stat: initTime=0.016670345
%%%mzn-stat: objective=537
%%%mzn-stat: nodes=363
%%%mzn-stat: restarts=0
%%%mzn-stat: peakDepth=182
%%%mzn-stat: solveTime=0.001361738
%%%mzn-stat: variables=386
%%%mzn-stat: propagators=456
%%%mzn-stat: failures=17
%%%mzn-stat: propagations=3984
%%%mzn-stat: nogoods=17
%%%mzn-stat: numAtomicConstraintsPropagated=0
%%%mzn-stat: circuitNumber191PropagationsThatFoundConflict=2
%%%mzn-stat: circuitNumber191TotalFixedEdgesAtConflict=40
%%%mzn-stat: circuitNumber191NumberOfConflicts=2
%%%mzn-stat: circuitNumber191PropagationsThatPruned=10
%%%mzn-stat: circuitNumber191PropagationsTotal=50
%%%mzn-stat: AverageConflictSize=3.764705882352941
%%%mzn-stat: NumUnitNogoodsLearned=0
%%%mzn-stat: AverageLearnedNogoodLength=7.764705882352941
%%%mzn-stat: AverageBacktrackAmount=0
%%%mzn-stat: AverageLbd=6.529411764705882
%%%mzn-stat: 2AutonomousSearchNumBackupCalled=315
%%%mzn-stat: 2AutonomousSearchNumPredicatesRemoved=0
%%%mzn-stat: 2AutonomousSearchNumCalls=317
%%%mzn-stat: 2AutonomousSearchNumPredicatesAdded=298
%%%mzn-stat: 2AutonomousSearchAverageSizeOfHeap=1.227129337539432
%%%mzn-stat: 2AutonomousSearchNumAssignedPredicatesEncountered=389
%%%mzn-stat-end
maxleg = 537;
succ = array1d(1..20,[3, 5, 2, 7, 6, 8, 9, 11, 10, 14, 4, 18, 15, 16, 19, 17, 20, 1, 12, 13]);
% time elapsed: 6.06 s
----------
%%%mzn-stat: initTime=0.016670345
%%%mzn-stat: objective=465
%%%mzn-stat: nodes=528
%%%mzn-stat: restarts=0
%%%mzn-stat: peakDepth=182
%%%mzn-stat: solveTime=0.001979879
%%%mzn-stat: variables=386
%%%mzn-stat: propagators=456
%%%mzn-stat: failures=23
%%%mzn-stat: propagations=5691
%%%mzn-stat: nogoods=23
%%%mzn-stat: numAtomicConstraintsPropagated=0
%%%mzn-stat: circuitNumber191PropagationsThatFoundConflict=4
%%%mzn-stat: circuitNumber191TotalFixedEdgesAtConflict=80
%%%mzn-stat: circuitNumber191NumberOfConflicts=4
%%%mzn-stat: circuitNumber191PropagationsThatPruned=18
%%%mzn-stat: circuitNumber191PropagationsTotal=76
%%%mzn-stat: AverageConflictSize=4.434782608695652
%%%mzn-stat: NumUnitNogoodsLearned=0
%%%mzn-stat: AverageLearnedNogoodLength=8.91304347826087
%%%mzn-stat: AverageBacktrackAmount=0
%%%mzn-stat: AverageLbd=6.869565217391305
%%%mzn-stat: 2AutonomousSearchNumBackupCalled=461
%%%mzn-stat: 2AutonomousSearchNumPredicatesRemoved=0
%%%mzn-stat: 2AutonomousSearchNumCalls=464
%%%mzn-stat: 2AutonomousSearchNumPredicatesAdded=503
%%%mzn-stat: 2AutonomousSearchAverageSizeOfHeap=1.3900862068965518
%%%mzn-stat: 2AutonomousSearchNumAssignedPredicatesEncountered=645
%%%mzn-stat-end
maxleg = 465;
succ = array1d(1..20,[3, 5, 2, 7, 6, 11, 9, 1, 10, 15, 4, 19, 17, 18, 20, 14, 16, 12, 8, 13]);
% time elapsed: 6.06 s
----------
%%%mzn-stat: initTime=0.016670345
%%%mzn-stat: objective=456
%%%mzn-stat: nodes=701
%%%mzn-stat: restarts=0
%%%mzn-stat: peakDepth=182
%%%mzn-stat: solveTime=0.002984922
%%%mzn-stat: variables=386
%%%mzn-stat: propagators=456
%%%mzn-stat: failures=35
%%%mzn-stat: propagations=8167
%%%mzn-stat: nogoods=35
%%%mzn-stat: numAtomicConstraintsPropagated=0
%%%mzn-stat: circuitNumber191PropagationsThatFoundConflict=10
%%%mzn-stat: circuitNumber191TotalFixedEdgesAtConflict=185
%%%mzn-stat: circuitNumber191NumberOfConflicts=10
%%%mzn-stat: circuitNumber191PropagationsThatPruned=22
%%%mzn-stat: circuitNumber191PropagationsTotal=107
%%%mzn-stat: AverageConflictSize=4.9714285714285715
%%%mzn-stat: NumUnitNogoodsLearned=0
%%%mzn-stat: AverageLearnedNogoodLength=10.114285714285714
%%%mzn-stat: AverageBacktrackAmount=0
%%%mzn-stat: AverageLbd=7.285714285714286
%%%mzn-stat: 2AutonomousSearchNumBackupCalled=608
%%%mzn-stat: 2AutonomousSearchNumPredicatesRemoved=0
%%%mzn-stat: 2AutonomousSearchNumCalls=612
%%%mzn-stat: 2AutonomousSearchNumPredicatesAdded=753
%%%mzn-stat: 2AutonomousSearchAverageSizeOfHeap=1.5441176470588236
%%%mzn-stat: 2AutonomousSearchNumAssignedPredicatesEncountered=945
%%%mzn-stat-end
maxleg = 456;
succ = array1d(1..20,[3, 5, 2, 7, 6, 11, 9, 1, 13, 14, 4, 19, 17, 18, 16, 10, 20, 12, 8, 15]);
% time elapsed: 6.06 s
----------
%%%mzn-stat: initTime=0.016670345
%%%mzn-stat: objective=433
%%%mzn-stat: nodes=851
%%%mzn-stat: restarts=0
%%%mzn-stat: peakDepth=182
%%%mzn-stat: solveTime=0.003770001
%%%mzn-stat: variables=386
%%%mzn-stat: propagators=456
%%%mzn-stat: failures=43
%%%mzn-stat: propagations=10089
%%%mzn-stat: nogoods=43
%%%mzn-stat: numAtomicConstraintsPropagated=0
%%%mzn-stat: circuitNumber191PropagationsThatFoundConflict=14
%%%mzn-stat: circuitNumber191TotalFixedEdgesAtConflict=260
%%%mzn-stat: circuitNumber191NumberOfConflicts=14
%%%mzn-stat: circuitNumber191PropagationsThatPruned=25
%%%mzn-stat: circuitNumber191PropagationsTotal=130
%%%mzn-stat: AverageConflictSize=5.511627906976744
%%%mzn-stat: NumUnitNogoodsLearned=0
%%%mzn-stat: AverageLearnedNogoodLength=12
%%%mzn-stat: AverageBacktrackAmount=0
%%%mzn-stat: AverageLbd=7.813953488372093
%%%mzn-stat: 2AutonomousSearchNumBackupCalled=738
%%%mzn-stat: 2AutonomousSearchNumPredicatesRemoved=0
%%%mzn-stat: 2AutonomousSearchNumCalls=743
%%%mzn-stat: 2AutonomousSearchNumPredicatesAdded=983
%%%mzn-stat: 2AutonomousSearchAverageSizeOfHeap=1.7388963660834456
%%%mzn-stat: 2AutonomousSearchNumAssignedPredicatesEncountered=1292
%%%mzn-stat-end
maxleg = 433;
succ = array1d(1..20,[3, 5, 2, 7, 6, 11, 9, 1, 13, 16, 4, 19, 17, 18, 10, 14, 20, 12, 8, 15]);
% time elapsed: 6.06 s
----------
%%%mzn-stat: initTime=0.016670345
%%%mzn-stat: objective=410
%%%mzn-stat: nodes=1012
%%%mzn-stat: restarts=0
%%%mzn-stat: peakDepth=182
%%%mzn-stat: solveTime=0.005815443
%%%mzn-stat: variables=386
%%%mzn-stat: propagators=456
%%%mzn-stat: failures=68
%%%mzn-stat: propagations=14294
%%%mzn-stat: nogoods=68
%%%mzn-stat: numAtomicConstraintsPropagated=0
%%%mzn-stat: circuitNumber191PropagationsThatFoundConflict=25
%%%mzn-stat: circuitNumber191TotalFixedEdgesAtConflict=458
%%%mzn-stat: circuitNumber191NumberOfConflicts=25
%%%mzn-stat: circuitNumber191PropagationsThatPruned=32
%%%mzn-stat: circuitNumber191PropagationsTotal=179
%%%mzn-stat: AverageConflictSize=6.205882352941177
%%%mzn-stat: NumUnitNogoodsLearned=0
%%%mzn-stat: AverageLearnedNogoodLength=14.602941176470589
%%%mzn-stat: AverageBacktrackAmount=0
%%%mzn-stat: AverageLbd=8.411764705882353
%%%mzn-stat: 2AutonomousSearchNumBackupCalled=861
%%%mzn-stat: 2AutonomousSearchNumPredicatesRemoved=0
%%%mzn-stat: 2AutonomousSearchNumCalls=867
%%%mzn-stat: 2AutonomousSearchNumPredicatesAdded=1371
%%%mzn-stat: 2AutonomousSearchAverageSizeOfHeap=1.9953863898500577
%%%mzn-stat: 2AutonomousSearchNumAssignedPredicatesEncountered=1730
%%%mzn-stat-end
maxleg = 410;
succ = array1d(1..20,[3, 5, 2, 7, 6, 12, 9, 11, 13, 16, 4, 19, 17, 18, 10, 14, 20, 1, 8, 15]);
% time elapsed: 6.06 s
----------
%%%mzn-stat: initTime=0.016670345
%%%mzn-stat: objective=408
%%%mzn-stat: nodes=1163
%%%mzn-stat: restarts=0
%%%mzn-stat: peakDepth=182
%%%mzn-stat: solveTime=0.007302403
%%%mzn-stat: variables=386
%%%mzn-stat: propagators=456
%%%mzn-stat: failures=84
%%%mzn-stat: propagations=17216
%%%mzn-stat: nogoods=84
%%%mzn-stat: numAtomicConstraintsPropagated=0
%%%mzn-stat: circuitNumber191PropagationsThatFoundConflict=32
%%%mzn-stat: circuitNumber191TotalFixedEdgesAtConflict=592
%%%mzn-stat: circuitNumber191NumberOfConflicts=32
%%%mzn-stat: circuitNumber191PropagationsThatPruned=33
%%%mzn-stat: circuitNumber191PropagationsTotal=215
%%%mzn-stat: AverageConflictSize=6.642857142857143
%%%mzn-stat: NumUnitNogoodsLearned=0
%%%mzn-stat: AverageLearnedNogoodLength=15.988095238095237
%%%mzn-stat: AverageBacktrackAmount=0
%%%mzn-stat: AverageLbd=8.404761904761905
%%%mzn-stat: 2AutonomousSearchNumBackupCalled=983
%%%mzn-stat: 2AutonomousSearchNumPredicatesRemoved=0
%%%mzn-stat: 2AutonomousSearchNumCalls=990
%%%mzn-stat: 2AutonomousSearchNumPredicatesAdded=1732
%%%mzn-stat: 2AutonomousSearchAverageSizeOfHeap=2.2515151515151515
%%%mzn-stat: 2AutonomousSearchNumAssignedPredicatesEncountered=2229
%%%mzn-stat-end
maxleg = 408;
succ = array1d(1..20,[3, 5, 2, 7, 6, 12, 10, 1, 13, 15, 8, 18, 17, 16, 19, 9, 20, 14, 11, 4]);
% time elapsed: 6.06 s
----------
%%%mzn-stat: initTime=0.016670345
%%%mzn-stat: objective=406
%%%mzn-stat: nodes=1295
%%%mzn-stat: restarts=0
%%%mzn-stat: peakDepth=182
%%%mzn-stat: solveTime=0.008266998
%%%mzn-stat: variables=386
%%%mzn-stat: propagators=456
%%%mzn-stat: failures=86
%%%mzn-stat: propagations=18421
%%%mzn-stat: nogoods=86
%%%mzn-stat: numAtomicConstraintsPropagated=0
%%%mzn-stat: circuitNumber191PropagationsThatFoundConflict=33
%%%mzn-stat: circuitNumber191TotalFixedEdgesAtConflict=609
%%%mzn-stat: circuitNumber191NumberOfConflicts=33
%%%mzn-stat: circuitNumber191PropagationsThatPruned=36
%%%mzn-stat: circuitNumber191PropagationsTotal=231
%%%mzn-stat: AverageConflictSize=6.837209302325581
%%%mzn-stat: NumUnitNogoodsLearned=0
%%%mzn-stat: AverageLearnedNogoodLength=16.302325581395348
%%%mzn-stat: AverageBacktrackAmount=0
%%%mzn-stat: AverageLbd=8.453488372093023
%%%mzn-stat: 2AutonomousSearchNumBackupCalled=1102
%%%mzn-stat: 2AutonomousSearchNumPredicatesRemoved=0
%%%mzn-stat: 2AutonomousSearchNumCalls=1110
%%%mzn-stat: 2AutonomousSearchNumPredicatesAdded=1908
%%%mzn-stat: 2AutonomousSearchAverageSizeOfHeap=2.457657657657658
%%%mzn-stat: 2AutonomousSearchNumAssignedPredicatesEncountered=2728
%%%mzn-stat-end
maxleg = 406;
succ = array1d(1..20,[3, 5, 2, 7, 6, 12, 10, 11, 13, 15, 1, 18, 17, 16, 19, 9, 20, 14, 8, 4]);
% time elapsed: 6.06 s
----------
%%%mzn-stat: initTime=0.016670345
%%%mzn-stat: objective=401
%%%mzn-stat: nodes=2164
%%%mzn-stat: restarts=0
%%%mzn-stat: peakDepth=182
%%%mzn-stat: solveTime=0.061300238
%%%mzn-stat: variables=386
%%%mzn-stat: propagators=456
%%%mzn-stat: failures=735
%%%mzn-stat: propagations=101783
%%%mzn-stat: nogoods=735
%%%mzn-stat: numAtomicConstraintsPropagated=0
%%%mzn-stat: circuitNumber191PropagationsThatFoundConflict=129
%%%mzn-stat: circuitNumber191TotalFixedEdgesAtConflict=1998
%%%mzn-stat: circuitNumber191NumberOfConflicts=129
%%%mzn-stat: circuitNumber191PropagationsThatPruned=231
%%%mzn-stat: circuitNumber191PropagationsTotal=1200
%%%mzn-stat: AverageConflictSize=8.054421768707483
%%%mzn-stat: NumUnitNogoodsLearned=0
%%%mzn-stat: AverageLearnedNogoodLength=25.14829931972789
%%%mzn-stat: AverageBacktrackAmount=0
%%%mzn-stat: AverageLbd=8.048979591836735
%%%mzn-stat: 2AutonomousSearchNumBackupCalled=1215
%%%mzn-stat: 2AutonomousSearchNumPredicatesRemoved=0
%%%mzn-stat: 2AutonomousSearchNumCalls=1224
%%%mzn-stat: 2AutonomousSearchNumPredicatesAdded=2512
%%%mzn-stat: 2AutonomousSearchAverageSizeOfHeap=2.7712418300653594
%%%mzn-stat: 2AutonomousSearchNumAssignedPredicatesEncountered=3392
%%%mzn-stat-end
maxleg = 401;
succ = array1d(1..20,[3, 5, 2, 11, 6, 7, 12, 19, 4, 15, 8, 18, 9, 16, 17, 10, 20, 14, 1, 13]);
% time elapsed: 6.09 s
----------
%%%mzn-stat: initTime=0.016670345
%%%mzn-stat: objective=390
%%%mzn-stat: nodes=2303
%%%mzn-stat: restarts=0
%%%mzn-stat: peakDepth=182
%%%mzn-stat: solveTime=0.062002625
%%%mzn-stat: variables=386
%%%mzn-stat: propagators=456
%%%mzn-stat: failures=739
%%%mzn-stat: propagations=103103
%%%mzn-stat: nogoods=739
%%%mzn-stat: numAtomicConstraintsPropagated=0
%%%mzn-stat: circuitNumber191PropagationsThatFoundConflict=131
%%%mzn-stat: circuitNumber191TotalFixedEdgesAtConflict=2025
%%%mzn-stat: circuitNumber191NumberOfConflicts=131
%%%mzn-stat: circuitNumber191PropagationsThatPruned=234
%%%mzn-stat: circuitNumber191PropagationsTotal=1219
%%%mzn-stat: AverageConflictSize=8.117726657645466
%%%mzn-stat: NumUnitNogoodsLearned=0
%%%mzn-stat: AverageLearnedNogoodLength=25.132611637347768
%%%mzn-stat: AverageBacktrackAmount=0
%%%mzn-stat: AverageLbd=8.047361299052774
%%%mzn-stat: 2AutonomousSearchNumBackupCalled=1336
%%%mzn-stat: 2AutonomousSearchNumPredicatesRemoved=0
%%%mzn-stat: 2AutonomousSearchNumCalls=1346
%%%mzn-stat: 2AutonomousSearchNumPredicatesAdded=2613
%%%mzn-stat: 2AutonomousSearchAverageSizeOfHeap=3.013372956909361
%%%mzn-stat: 2AutonomousSearchNumAssignedPredicatesEncountered=4056
%%%mzn-stat-end
maxleg = 390;
succ = array1d(1..20,[3, 5, 2, 11, 6, 12, 9, 19, 10, 16, 8, 18, 4, 7, 17, 15, 20, 14, 1, 13]);
% time elapsed: 6.11 s
----------
%%%mzn-stat: initTime=0.016670345
%%%mzn-stat: objective=376
%%%mzn-stat: nodes=2431
%%%mzn-stat: restarts=0
%%%mzn-stat: peakDepth=182
%%%mzn-stat: solveTime=0.062814768
%%%mzn-stat: variables=386
%%%mzn-stat: propagators=456
%%%mzn-stat: failures=745
%%%mzn-stat: propagations=104724
%%%mzn-stat: nogoods=745
%%%mzn-stat: numAtomicConstraintsPropagated=0
%%%mzn-stat: circuitNumber191PropagationsThatFoundConflict=134
%%%mzn-stat: circuitNumber191TotalFixedEdgesAtConflict=2063
%%%mzn-stat: circuitNumber191NumberOfConflicts=134
%%%mzn-stat: circuitNumber191PropagationsThatPruned=237
%%%mzn-stat: circuitNumber191PropagationsTotal=1243
%%%mzn-stat: AverageConflictSize=8.108724832214765
%%%mzn-stat: NumUnitNogoodsLearned=0
%%%mzn-stat: AverageLearnedNogoodLength=25.042953020134227
%%%mzn-stat: AverageBacktrackAmount=0
%%%mzn-stat: AverageLbd=8.026845637583893
%%%mzn-stat: 2AutonomousSearchNumBackupCalled=1446
%%%mzn-stat: 2AutonomousSearchNumPredicatesRemoved=0
%%%mzn-stat: 2AutonomousSearchNumCalls=1457
%%%mzn-stat: 2AutonomousSearchNumPredicatesAdded=2820
%%%mzn-stat: 2AutonomousSearchAverageSizeOfHeap=3.2395332875772134
%%%mzn-stat: 2AutonomousSearchNumAssignedPredicatesEncountered=4720
%%%mzn-stat-end
maxleg = 376;
succ = array1d(1..20,[3, 5, 2, 11, 18, 7, 9, 19, 10, 16, 8, 6, 4, 12, 17, 15, 20, 14, 1, 13]);
% time elapsed: 6.11 s
----------
==========
% time elapsed: 10.11 s
%%%mzn-stat: initTime=0.016670345
%%%mzn-stat: objective=376
%%%mzn-stat: nodes=31178
%%%mzn-stat: restarts=0
%%%mzn-stat: peakDepth=182
%%%mzn-stat: solveTime=4.077837437
%%%mzn-stat: variables=386
%%%mzn-stat: propagators=456
%%%mzn-stat: failures=27623
%%%mzn-stat: propagations=2722845
%%%mzn-stat: nogoods=27623
%%%mzn-stat: numAtomicConstraintsPropagated=0
%%%mzn-stat: circuitNumber191PropagationsThatFoundConflict=1038
%%%mzn-stat: circuitNumber191TotalFixedEdgesAtConflict=13799
%%%mzn-stat: circuitNumber191NumberOfConflicts=1038
%%%mzn-stat: circuitNumber191PropagationsThatPruned=3409
%%%mzn-stat: circuitNumber191PropagationsTotal=21956
%%%mzn-stat: AverageConflictSize=15.354451000977447
%%%mzn-stat: NumUnitNogoodsLearned=1
%%%mzn-stat: AverageLearnedNogoodLength=33.02961300365637
%%%mzn-stat: AverageBacktrackAmount=0
%%%mzn-stat: AverageLbd=5.908663070629548
%%%mzn-stat: 2AutonomousSearchNumBackupCalled=1446
%%%mzn-stat: 2AutonomousSearchNumPredicatesRemoved=0
%%%mzn-stat: 2AutonomousSearchNumCalls=1457
%%%mzn-stat: 2AutonomousSearchNumPredicatesAdded=3742
%%%mzn-stat: 2AutonomousSearchAverageSizeOfHeap=3.2395332875772134
%%%mzn-stat: 2AutonomousSearchNumAssignedPredicatesEncountered=4720
%%%mzn-stat-end
